 # This is the geometry file from relaxed coordinates
lattice_vector     11.45107534      0.00000012      0.02567253
lattice_vector     -0.00000004      3.85643998      0.00000115
lattice_vector     -1.42912834      0.00000359      6.02550857
atom       1.32031679      0.05627465     -1.17369778 Ga
atom      -1.32031634      0.05627527      1.17369858 Ga
atom      -4.72309871     -1.65341015     -1.17424641 Ga
atom       4.72309742     -1.65341078      1.17424609 Ga
atom       1.48161308     -1.44844985      1.70812075 Ga
atom      -1.48161145     -1.44844886     -1.70812137 Ga
atom      -4.48215754     -0.04794711      1.72464059 Ga
atom       4.48215649     -0.04794304     -1.72463982 Ga
atom       1.61908913      0.16205975      0.60638953 O
atom      -1.61908803      0.16205958     -0.60638851 O
atom      -4.53742497     -1.68576349      0.70908120 O
atom       4.53742507     -1.68576339     -0.70908279 O
atom       2.77678267      0.04021998     -2.35631186 O
atom      -2.77678210      0.04022011      2.35631139 O
atom      -3.19825480     -1.56403562     -2.33075260 O
atom       3.19825404     -1.56403791      2.33075274 O
atom      -0.31441478     -1.67842916      1.47713702 O
atom       0.31441501     -1.67842843     -1.47713667 O
atom       5.27734978      0.22697855      1.44278954 O
atom      -5.27735138      0.22698016     -1.44279002 O
